2 20
603 509 
0 60 50 78 68 90 48 2
1 66 56 43 33 69 16 2
2 36 26 71 61 30 78 1
3 59 49 67 57 37 98 2
4 106 96 77 67 36 40 1
5 88 78 89 79 57 78 2
6 107 97 54 44 58 83 1
7 88 78 73 63 4 69 1
8 92 82 43 33 95 40 1
9 14 4 82 72 32 59 2
10 34 24 80 70 10 75 1
11 13 3 14 4 73 30 2
12 105 95 32 22 27 80 1
13 82 72 38 28 90 5 1
14 36 26 74 64 80 66 2
15 100 90 40 30 37 15 2
16 65 55 32 22 67 13 2
17 91 81 51 41 26 75 2
18 58 48 105 95 68 70 2
19 107 97 75 65 33 59 2
